p cnf 52 175
4 2 0
4 -3 0
-2 3 -4 0
5 -1 0
5 -4 0
1 4 -5 0
8 4 0
8 -7 0
-4 7 -8 0
-9 6 0
-9 -8 0
-6 8 9 0
-10 -11 0
10 -11 0
-9 11 -12 0
9 -11 -12 0
-9 -11 12 0
9 11 12 0
-13 14 0
13 14 0
15 -12 0
15 14 0
12 -14 -15 0
-16 5 0
-16 15 0
-5 -15 16 0
17 3 0
17 -7 0
-3 7 -17 0
19 -17 0
19 18 0
17 -18 -19 0
20 -19 0
20 2 0
19 -2 -20 0
7 -21 -22 0
-7 21 -22 0
7 21 22 0
-7 -21 22 0
23 -11 0
23 8 0
11 -8 -23 0
-23 9 -24 0
23 -9 -24 0
-23 -9 24 0
23 9 24 0
25 -24 0
25 -11 0
24 11 -25 0
26 24 0
26 -3 0
-24 3 -26 0
25 26 -27 0
-25 -26 -27 0
25 -26 27 0
-25 26 27 0
-28 -22 0
-28 27 0
22 -27 28 0
-29 20 0
-29 28 0
-20 -28 29 0
16 -29 -30 0
-16 29 -30 0
16 29 30 0
-16 -29 30 0
-31 -4 0
-31 10 0
4 -10 31 0
-30 -31 -32 0
30 31 -32 0
-30 31 32 0
30 -31 32 0
-33 7 -34 0
33 -7 -34 0
-33 -7 34 0
33 7 34 0
-35 -10 0
-35 7 0
10 -7 35 0
-36 -19 0
-36 -35 0
19 35 36 0
34 36 -37 0
-34 -36 -37 0
34 -36 37 0
-34 36 37 0
32 -37 -38 0
-32 37 -38 0
32 37 38 0
-32 -37 38 0
-39 -17 0
-39 -18 0
17 18 39 0
40 -10 0
40 33 0
10 -33 -40 0
-40 10 -41 0
40 -10 -41 0
-40 -10 41 0
40 10 41 0
-42 -7 0
-42 -13 0
7 13 42 0
-43 41 0
-43 -42 0
-41 42 43 0
-44 -39 0
-44 -43 0
39 43 44 0
45 9 0
45 -40 0
-9 40 -45 0
46 -6 0
46 -33 0
6 33 -46 0
-47 46 0
-47 46 0
-46 47 0
48 -19 0
48 -33 0
19 33 -48 0
-49 47 0
-49 48 0
-47 -48 49 0
-50 45 0
-50 -49 0
-45 49 50 0
-51 -44 0
-51 50 0
44 -50 51 0
52 -38 0
52 -51 0
38 51 -52 0
30 41 45 47 -49 4 0
40 -18 29 -49 24 -30 0
-2 28 -34 40 13 -50 0
-51 -18 5 0
42 -15 2 -47 0
-46 22 7 8 -52 29 0
35 47 -31 11 0
38 -20 -40 0
1 -32 -51 27 -9 0
33 -48 -30 0
-9 41 -47 17 -14 21 0
-35 -33 0
31 39 25 0
4 32 -35 0
37 -13 34 26 0
-24 -8 12 -26 40 41 0
-28 43 -20 -4 52 0
41 52 34 44 35 0
-38 24 -51 0
-27 48 50 26 3 0
30 19 -28 1 -21 0
-40 -13 0
-25 -37 -48 32 -5 -18 0
-22 43 0
44 -42 -18 48 -15 0
-2 3 -13 -42 0
-42 -28 -47 10 0
14 -17 16 10 -51 0
-1 50 0
-41 43 45 0
47 -37 0
4 -50 40 -13 51 0
4 -29 0
21 -38 0
-39 1 24 32 25 0
27 -26 18 21 5 -16 0
22 -5 -27 9 -50 0
-51 39 2 34 -49 0
-35 13 -7 -51 -10 -21 0
-1 28 38 -26 0
52 0
